12° run output:
{
    "Function": "kroB400.tsp",
    "Problem dimension": [
        381,
        320,
        386,
        114,
        357,
        199,
        333,
        276,
        332,
        248,
        95,
        91,
        40,
        356,
        302,
        267,
        139,
        216,
        155,
        293,
        90,
        31,
        300,
        175,
        156,
        101,
        16,
        274,
        184,
        294,
        138,
        55,
        265,
        304,
        47,
        233,
        208,
        0,
        29,
        193,
        38,
        250,
        360,
        205,
        393,
        102,
        201,
        185,
        359,
        160,
        213,
        7,
        224,
        209,
        281,
        312,
        124,
        226,
        35,
        232,
        3,
        220,
        51,
        251,
        132,
        111,
        109,
        77,
        264,
        194,
        384,
        120,
        176,
        362,
        366,
        210,
        227,
        273,
        140,
        71,
        290,
        275,
        270,
        380,
        375,
        147,
        191,
        215,
        10,
        73,
        305,
        23,
        190,
        307,
        105,
        338,
        170,
        311,
        69,
        354,
        128,
        249,
        207,
        203,
        134,
        97,
        84,
        257,
        282,
        37,
        85,
        66,
        376,
        367,
        236,
        296,
        323,
        106,
        27,
        244,
        211,
        266,
        385,
        133,
        187,
        364,
        324,
        269,
        30,
        371,
        398,
        283,
        177,
        11,
        151,
        65,
        130,
        89,
        353,
        372,
        369,
        261,
        142,
        388,
        289,
        285,
        331,
        144,
        242,
        246,
        182,
        53,
        161,
        5,
        212,
        127,
        171,
        165,
        63,
        1,
        163,
        368,
        141,
        217,
        159,
        192,
        258,
        74,
        87,
        152,
        41,
        108,
        164,
        391,
        291,
        44,
        17,
        340,
        22,
        86,
        339,
        78,
        254,
        19,
        351,
        350,
        262,
        99,
        196,
        239,
        299,
        135,
        181,
        315,
        88,
        56,
        123,
        94,
        329,
        284,
        277,
        252,
        58,
        314,
        174,
        306,
        15,
        118,
        42,
        322,
        298,
        169,
        36,
        136,
        202,
        126,
        336,
        39,
        67,
        200,
        112,
        328,
        178,
        115,
        392,
        260,
        49,
        397,
        129,
        237,
        18,
        370,
        113,
        345,
        131,
        374,
        28,
        218,
        197,
        188,
        168,
        6,
        309,
        54,
        286,
        317,
        50,
        20,
        377,
        280,
        14,
        125,
        43,
        158,
        4,
        61,
        373,
        64,
        204,
        21,
        321,
        278,
        327,
        352,
        379,
        60,
        295,
        82,
        172,
        46,
        303,
        79,
        255,
        68,
        325,
        25,
        189,
        230,
        337,
        103,
        179,
        245,
        12,
        154,
        234,
        241,
        355,
        173,
        341,
        229,
        166,
        348,
        319,
        167,
        288,
        195,
        335,
        92,
        75,
        32,
        117,
        219,
        13,
        222,
        186,
        326,
        33,
        310,
        387,
        343,
        104,
        183,
        240,
        80,
        180,
        145,
        198,
        214,
        346,
        358,
        107,
        45,
        334,
        389,
        243,
        399,
        225,
        146,
        62,
        272,
        365,
        297,
        153,
        228,
        349,
        26,
        268,
        98,
        378,
        96,
        157,
        48,
        316,
        383,
        344,
        137,
        279,
        318,
        72,
        256,
        9,
        231,
        70,
        394,
        382,
        247,
        122,
        271,
        93,
        34,
        259,
        308,
        223,
        121,
        24,
        238,
        253,
        110,
        390,
        347,
        100,
        83,
        57,
        206,
        81,
        395,
        8,
        313,
        116,
        148,
        2,
        52,
        363,
        292,
        361,
        76,
        342,
        149,
        287,
        59,
        301,
        119,
        396,
        150,
        330,
        221,
        263,
        143,
        235,
        162
    ],
    "Global Optimum": 0,
    "Algorithm": "Genetic algorithm",
    "Parameters": {
        "population": 30,
        "offspring": 30,
        "mutation probability": 0.0025,
        "crossover probability": 0.9
    },
    "Fitness": 431892,
    "Solution": [
        381,
        320,
        386,
        114,
        357,
        199,
        333,
        276,
        332,
        248,
        95,
        91,
        40,
        356,
        302,
        267,
        139,
        216,
        155,
        293,
        90,
        31,
        300,
        175,
        156,
        101,
        16,
        274,
        184,
        294,
        138,
        55,
        265,
        304,
        47,
        233,
        208,
        0,
        29,
        193,
        38,
        250,
        360,
        205,
        393,
        102,
        201,
        185,
        359,
        160,
        213,
        7,
        224,
        209,
        281,
        312,
        124,
        226,
        35,
        232,
        3,
        220,
        51,
        251,
        132,
        111,
        109,
        77,
        264,
        194,
        384,
        120,
        176,
        362,
        366,
        210,
        227,
        273,
        140,
        71,
        290,
        275,
        270,
        380,
        375,
        147,
        191,
        215,
        10,
        73,
        305,
        23,
        190,
        307,
        105,
        338,
        170,
        311,
        69,
        354,
        128,
        249,
        207,
        203,
        134,
        97,
        84,
        257,
        282,
        37,
        85,
        66,
        376,
        367,
        236,
        296,
        323,
        106,
        27,
        244,
        211,
        266,
        385,
        133,
        187,
        364,
        324,
        269,
        30,
        371,
        398,
        283,
        177,
        11,
        151,
        65,
        130,
        89,
        353,
        372,
        369,
        261,
        142,
        388,
        289,
        285,
        331,
        144,
        242,
        246,
        182,
        53,
        161,
        5,
        212,
        127,
        171,
        165,
        63,
        1,
        163,
        368,
        141,
        217,
        159,
        192,
        258,
        74,
        87,
        152,
        41,
        108,
        164,
        391,
        291,
        44,
        17,
        340,
        22,
        86,
        339,
        78,
        254,
        19,
        351,
        350,
        262,
        99,
        196,
        239,
        299,
        135,
        181,
        315,
        88,
        56,
        123,
        94,
        329,
        284,
        277,
        252,
        58,
        314,
        174,
        306,
        15,
        118,
        42,
        322,
        298,
        169,
        36,
        136,
        202,
        126,
        336,
        39,
        67,
        200,
        112,
        328,
        178,
        115,
        392,
        260,
        49,
        397,
        129,
        237,
        18,
        370,
        113,
        345,
        131,
        374,
        28,
        218,
        197,
        188,
        168,
        6,
        309,
        54,
        286,
        317,
        50,
        20,
        377,
        280,
        14,
        125,
        43,
        158,
        4,
        61,
        373,
        64,
        204,
        21,
        321,
        278,
        327,
        352,
        379,
        60,
        295,
        82,
        172,
        46,
        303,
        79,
        255,
        68,
        325,
        25,
        189,
        230,
        337,
        103,
        179,
        245,
        12,
        154,
        234,
        241,
        355,
        173,
        341,
        229,
        166,
        348,
        319,
        167,
        288,
        195,
        335,
        92,
        75,
        32,
        117,
        219,
        13,
        222,
        186,
        326,
        33,
        310,
        387,
        343,
        104,
        183,
        240,
        80,
        180,
        145,
        198,
        214,
        346,
        358,
        107,
        45,
        334,
        389,
        243,
        399,
        225,
        146,
        62,
        272,
        365,
        297,
        153,
        228,
        349,
        26,
        268,
        98,
        378,
        96,
        157,
        48,
        316,
        383,
        344,
        137,
        279,
        318,
        72,
        256,
        9,
        231,
        70,
        394,
        382,
        247,
        122,
        271,
        93,
        34,
        259,
        308,
        223,
        121,
        24,
        238,
        253,
        110,
        390,
        347,
        100,
        83,
        57,
        206,
        81,
        395,
        8,
        313,
        116,
        148,
        2,
        52,
        363,
        292,
        361,
        76,
        342,
        149,
        287,
        59,
        301,
        119,
        396,
        150,
        330,
        221,
        263,
        143,
        235,
        162
    ],
    "Nb of functions evaluations": 200010,
    "Computational time in seconds": 549.8926374912262,
    "Stopping criterion in evaluations": 200000
}